\ENCODING=ISO-8859-1
\Problem name: MIPCplexWrapper

Minimize
 obj1: X_INTRODUCED_63_
Subject To
 p_lin_0:  - X_INTRODUCED_64_ - X_INTRODUCED_65_ - X_INTRODUCED_66_
           - X_INTRODUCED_67_ <= 0
 p_lin_1:  - X_INTRODUCED_51_ + X_INTRODUCED_53_ + X_INTRODUCED_55_  = 0
 p_lin_2:  X_INTRODUCED_51_ + X_INTRODUCED_54_ + X_INTRODUCED_56_  = 0
 p_lin_3:  X_INTRODUCED_64_ + X_INTRODUCED_85_  = 1
 p_lin_4:  - X_INTRODUCED_53_ + X_INTRODUCED_64_ <= 0
 p_lin_5:  X_INTRODUCED_53_ - 50 X_INTRODUCED_64_ <= 0
 p_lin_6:  X_INTRODUCED_65_ + X_INTRODUCED_87_  = 1
 p_lin_7:  - X_INTRODUCED_54_ + X_INTRODUCED_65_ <= 0
 p_lin_8:  X_INTRODUCED_54_ - 50 X_INTRODUCED_65_ <= 0
 p_lin_9:  X_INTRODUCED_66_ + X_INTRODUCED_89_  = 1
 p_lin_10: - X_INTRODUCED_55_ + X_INTRODUCED_66_ <= 0
 p_lin_11: X_INTRODUCED_55_ - 50 X_INTRODUCED_66_ <= 0
 p_lin_12: X_INTRODUCED_67_ + X_INTRODUCED_91_  = 1
 p_lin_13: - X_INTRODUCED_56_ + X_INTRODUCED_67_ <= 0
 p_lin_14: X_INTRODUCED_56_ - 50 X_INTRODUCED_67_ <= 0
 p_lin_15: - X_INTRODUCED_63_ + X_INTRODUCED_64_ + X_INTRODUCED_65_
           + X_INTRODUCED_66_ + X_INTRODUCED_67_  = -1
Bounds
 1 <= X_INTRODUCED_51_ <= 50
 0 <= X_INTRODUCED_53_ <= 50
 0 <= X_INTRODUCED_54_ <= 50
 0 <= X_INTRODUCED_55_ <= 50
 0 <= X_INTRODUCED_56_ <= 50
 1 <= X_INTRODUCED_63_ <= 5
 0 <= X_INTRODUCED_64_ <= 1
 0 <= X_INTRODUCED_65_ <= 1
 0 <= X_INTRODUCED_66_ <= 1
 0 <= X_INTRODUCED_67_ <= 1
 0 <= X_INTRODUCED_85_ <= 1
 0 <= X_INTRODUCED_87_ <= 1
 0 <= X_INTRODUCED_89_ <= 1
 0 <= X_INTRODUCED_91_ <= 1
Generals
 X_INTRODUCED_51_  X_INTRODUCED_53_  X_INTRODUCED_54_  X_INTRODUCED_55_ 
 X_INTRODUCED_56_  X_INTRODUCED_63_  X_INTRODUCED_64_  X_INTRODUCED_65_ 
 X_INTRODUCED_66_  X_INTRODUCED_67_  X_INTRODUCED_85_  X_INTRODUCED_87_ 
 X_INTRODUCED_89_  X_INTRODUCED_91_ 
End
